147365.41,59.19,73.4
147556.79,59.11,73.31
141495.12,61.65,76.45
152399.81,57.23,70.98
139709.45,62.43,77.42
146127.12,59.69,74.02
144620.67,60.31,74.79
154614.08,56.41,69.96
156053.39,55.89,69.31
146341.35,59.6,73.91
160159.37,54.46,67.54
154173.09,56.58,70.16
149292.25,58.43,72.45
145917.84,59.78,74.13
153374.16,56.87,70.52
155207.17,56.2,69.69
151478.48,57.58,71.41
137907.38,63.25,78.43
143325.34,60.86,75.47
143249.58,60.89,75.51
